\ Model matlab
\ LP format - for model browsing. Use MPS format to capture full model detail.
Minimize
  C0
Subject To
 R0: C1 + C3 = 0.5864554271950292
 R1: C2 + C4 = -1.883522759722498
 R2: C1 + C5 = 0.3125935780654946
 R3: C2 + C6 = 1.289995383879372
 R4: C1 + C7 = 0.4335544266861838
 R5: C2 + C8 = 0.0264534730835962
 R6: C1 + C9 = -0.1981343418781792
 R7: C2 + C10 = 0.251781800706351
 R8: C1 + C11 = 0.6651971542813934
 R9: C2 + C12 = 0.2279630939309915
 R10: C1 + C13 = 0.4170998486126809
 R11: C2 + C14 = -1.556120292228752
 R12: C1 + C15 = 0.8858279119990512
 R13: C2 + C16 = 0.1962641905418362
 R14: C1 + C17 = -1.442594074371593
 R15: C2 + C18 = 0.4038336445925586
 R16: C1 + C19 = -0.8578389365643609
 R17: C2 + C20 = 0.2714825361363377
 R18: C1 + C21 = -0.8933295461335777
 R19: C2 + C22 = 0.9164844548224311
 R20: C1 + C23 = 0.3582774408881476
 R21: C2 + C24 = 1.236559664405982
 R22: C1 + C25 = 1.741848217442137
 R23: C2 + C26 = 0.9443144178413084
 R24: C1 + C27 = 0.1223502269147552
 R25: C2 + C28 = 0.5586238621167503
 R26: C1 + C29 = 0.2136737090674836
 R27: C2 + C30 = -0.3651221792155344
 R28: C1 + C31 = -1.635215018336658
 R29: C2 + C32 = -1.307339591411212
 R30: C1 + C33 = -1.33115350173336
 R31: C2 + C34 = -0.567808900539178
 R32: C1 + C35 = -1.39808425314404
 R33: C2 + C36 = 0.5943878989423393
 R34: C1 + C37 = 0.2349369661392441
 R35: C2 + C38 = -1.699056964021765
 R36: C1 + C39 = -1.974793800755224
 R37: C2 + C40 = -0.369086198661923
 R38: C1 + C41 = 0.6635677610813136
 R39: C2 + C42 = -0.45731181102389
 R40: C1 + C43 = -1.481245818831438
 R41: C2 + C44 = -1.474710767269432
 R42: C1 + C45 = 0.9273049174530998
 R43: C2 + C46 = 0.0389492849337292
 R44: C1 + C47 = 0.4137368070436738
 R45: C2 + C48 = -0.6980283221346593
 R46: C1 + C49 = -0.2003254838782571
 R47: C2 + C50 = 1.225662232962105
 R48: C1 + C51 = -0.322923943318093
 R49: C2 + C52 = -0.0668215134214161
 R50: C1 + C53 = -1.351993252717319
 R51: C2 + C54 = -0.3800138755644283
 R52: C1 + C55 = 1.511660754200628
 R53: C2 + C56 = -0.8846794006898826
 R54: C1 + C57 = 0.5934418264394835
 R55: C2 + C58 = -0.3068222287373572
 R56: C1 + C59 = 0.5355728301886373
 R57: C2 + C60 = 1.312871731149038
 R58: C1 + C61 = 0.2567681900912215
 R59: C2 + C62 = -0.4653162844383942
 R60: C1 + C63 = -1.35638753155671
 R61: C2 + C64 = -0.0787781392668725
 R62: C1 + C65 = 0.5345634045069337
 R63: C2 + C66 = 0.3467569973946546
 R64: C1 + C67 = 0.00687961926152795
 R65: C2 + C68 = -0.441913233111548
 R66: C1 + C69 = 0.1995668696016362
 R67: C2 + C70 = 0.136253611518884
 R68: C1 + C71 = 0.4539954964302336
 R69: C2 + C72 = -0.8584363085645992
 R70: C1 + C73 = 0.2187577699095791
 R71: C2 + C74 = 1.759724702905048
 R72: C1 + C75 = -0.7325557538915303
 R73: C2 + C76 = 1.578533153950032
 R74: C1 + C77 = -0.0406873528340539
 R75: C2 + C78 = -1.448654464956048
 R76: C1 + C79 = 1.361769752253602
 R77: C2 + C80 = 1.198325233909062
 R78: C1 + C81 = -0.6384867440716938
 R79: C2 + C82 = -0.3365974169303192
 R80: C1 + C83 = 1.077703639947115
 R81: C2 + C84 = -0.2004116796941752
 R82: C1 + C85 = 0.1794922347490293
 R83: C2 + C86 = -0.9952398887617098
 R84: C1 + C87 = 0.0208321348398344
 R85: C2 + C88 = 1.028852624192185
 R86: C1 + C89 = 1.11875032357913
 R87: C2 + C90 = -0.0724653372068449
 R88: C1 + C91 = -0.0340003517058589
 R89: C2 + C92 = -0.0769939563402999
 R90: C1 + C93 = -0.1017551255405398
 R91: C2 + C94 = -0.5915077704602172
 R92: C1 + C95 = 1.777954684946405
 R93: C2 + C96 = -0.1475015803580484
 R94: C1 + C97 = -0.4169443631388815
 R95: C2 + C98 = -0.2460313861417895
 R96: C1 + C99 = -1.040357408724029
 R97: C2 + C100 = -0.3879935912410582
 R98: C1 + C101 = 0.0344165196161899
 R99: C2 + C102 = -1.094080132316062
 R100: C1 + C103 = 0.0654642535699276
 R101: C2 + C104 = 0.7475848651820956
 R102: C1 + C105 = -1.028949314506073
 R103: C2 + C106 = -0.0181236
 R104: C1 + C107 = -0.5374688454584559
 R105: C2 + C108 = 0.6050359879216124
 R106: C1 + C109 = 0.9899635748428468
 R107: C2 + C110 = 1.021935482324472
 R108: C1 + C111 = -0.2960064247400661
 R109: C2 + C112 = -0.1998837253645831
 R110: C1 + C113 = 0.1432830037377566
 R111: C2 + C114 = 0.1274493477814001
 R112: C1 + C115 = 1.299990753743735
 R113: C2 + C116 = -0.391308340346849
 R114: C1 + C117 = 0.7809990324720327
 R115: C2 + C118 = -0.3826980309908064
 R116: C1 + C119 = -1.728914658815162
 R117: C2 + C120 = -1.276001198396464
 R118: C1 + C121 = -1.592757561431296
 R119: C2 + C122 = -0.9075407337914104
 R120: C1 + C123 = 1.186461527897061
 R121: C2 + C124 = -0.1692395883514497
 R122: C1 + C125 = -0.7958116557620402
 R123: C2 + C126 = -0.4206242524943232
 R124: C1 + C127 = -1.652118563618727
 R125: C2 + C128 = 0.724216187752275
 R126: C1 + C129 = -0.1325700123149226
 R127: C2 + C130 = -1.680301097428582
 R128: C1 + C131 = 0.7808268817145869
 R129: C2 + C132 = 1.737783861503151
 R130: C1 + C133 = -0.7789304822284013
 R131: C2 + C134 = 0.6740321123120515
 R132: C1 + C135 = 0.7035337867872586
 R133: C2 + C136 = 0.4884619710853502
 R134: C1 + C137 = -0.156165341682985
 R135: C2 + C138 = 0.9354058783130114
 R136: C1 + C139 = -0.7294245719731086
 R137: C2 + C140 = 0.0552761497658185
 R138: C1 + C141 = -0.4257055832627225
 R139: C2 + C142 = 0.0997587108532092
 R140: C1 + C143 = 0.3193800511627916
 R141: C2 + C144 = -0.3194511639184998
 R142: C1 + C145 = -1.24253340040246
 R143: C2 + C146 = 0.5359988042387777
 R144: C1 + C147 = -0.4916153445889121
 R145: C2 + C148 = 0.0721546717436027
 R146: C1 + C149 = 0.4008335695668351
 R147: C2 + C150 = 0.1465651338724996
 R148: C1 + C151 = 2.664250143226307
 R149: C2 + C152 = -1.921187003948022
 R150: C1 + C153 = 0.0242795967757014
 R151: C2 + C154 = 0.2476337268242936
 R152: C1 + C155 = 0.9658008163578021
 R153: C2 + C156 = -0.3915752168175742
 R154: C1 + C157 = 0.2295923288773052
 R155: C2 + C158 = 0.5836276810508312
 R156: C1 + C159 = -1.887329064654086
 R157: C2 + C160 = 0.5824785579764059
 R158: C1 + C161 = -0.3910731675873755
 R159: C2 + C162 = 0.9267876041274604
 R160: C1 + C163 = 0.6056086967134934
 R161: C2 + C164 = -0.0932132191675464
 R162: C1 + C165 = -0.7277504577091806
 R163: C2 + C166 = -1.159155088546735
 R164: C1 + C167 = -0.9909591223189318
 R165: C2 + C168 = -0.4867376566889848
 R166: C1 + C169 = -0.4686029211128464
 R167: C2 + C170 = -0.5765951063253904
 R168: C1 + C171 = -0.1237354606266928
 R169: C2 + C172 = 1.362251721897681
 R170: C1 + C173 = 0.1859292318764051
 R171: C2 + C174 = 0.0131803593434994
 R172: C1 + C175 = -0.7210596917540579
 R173: C2 + C176 = 0.2206190288780207
 R174: C1 + C177 = -0.5698498967712078
 R175: C2 + C178 = -2.814764185010569
 R176: C1 + C179 = -0.1795960235817143
 R177: C2 + C180 = 0.8075583157330666
 R178: C1 + C181 = 1.013872751354839
 R179: C2 + C182 = 0.2015213258346582
 R180: C1 + C183 = -0.2954000237388725
 R181: C2 + C184 = -1.400440651660576
 R182: C1 + C185 = 0.1001793440062424
 R183: C2 + C186 = -0.696144088489728
 R184: C1 + C187 = -1.031663857280406
 R185: C2 + C188 = 0.0518639581157999
 R186: C1 + C189 = -0.5332140598976408
 R187: C2 + C190 = 0.7895621162643511
 R188: C1 + C191 = 1.050359254607084
 R189: C2 + C192 = -1.128287602056701
 R190: C1 + C193 = -0.1105946398378539
 R191: C2 + C194 = -1.521366299786569
 R192: C1 + C195 = -0.0219272608666663
 R193: C2 + C196 = -0.3530664225328464
 R194: C1 + C197 = 1.174475063528931
 R195: C2 + C198 = 1.489509908822019
 R196: C1 + C199 = 0.6817632553282477
 R197: C2 + C200 = -0.0514710252915371
 R198: C1 + C201 = -0.1929430616492721
 R199: C2 + C202 = 1.134902657226469
 R200: C1 + C203 = 0.7215924003887151
 R201: C2 + C204 = 0.552513832564477
 R202: C1 + C205 = 0.9067911626514832
 R203: C2 + C206 = 0.2954326682627994
 R204: C1 + C207 = 2.138584311540561
 R205: C2 + C208 = 0.3487339745147774
 R206: C1 + C209 = -0.2421887185041216
 R207: C2 + C210 = -1.127099702467581
 R208: C1 + C211 = 0.979067062655258
 R209: C2 + C212 = -0.4345989374947521
 R210: C1 + C213 = -0.5275031121334529
 R211: C2 + C214 = 0.1942899679445793
 R212: C1 + C215 = -0.0970414067792805
 R213: C2 + C216 = 0.1160333143749796
 R214: C1 + C217 = -0.1929338819536445
 R215: C2 + C218 = 0.4259782252950079
 R216: C1 + C219 = 0.4021502793582161
 R217: C2 + C220 = 0.9415943349808762
 R218: C1 + C221 = 1.323795002236252
 R219: C2 + C222 = -0.1510151577865727
 R220: C1 + C223 = -1.278151542492877
 R221: C2 + C224 = 0.9939963562623667
 R222: C1 + C225 = -0.8831359623510643
 R223: C2 + C226 = 1.877189173227374
 R224: C1 + C227 = 2.035606487892431
 R225: C2 + C228 = -0.0952345728651586
 R226: C1 + C229 = -1.619259215687357
 R227: C2 + C230 = 0.487527050061326
 R228: C1 + C231 = 0.7161889177863141
 R229: C2 + C232 = 0.5768850369456805
 R230: C1 + C233 = 0.1321538040422942
 R231: C2 + C234 = 0.8143996691671842
 R232: C1 + C235 = -0.3328348206251817
 R233: C2 + C236 = 0.00334572583966736
 R234: C1 + C237 = 0.3930052897749951
 R235: C2 + C238 = -0.4417749380204893
 R236: C1 + C239 = 0.2086522625574795
 R237: C2 + C240 = -1.427025168688384
 R238: C1 + C241 = -1.348753534228168
 R239: C2 + C242 = 0.3118171704336006
 R240: C1 + C243 = -0.5590519737967276
 R241: C2 + C244 = -1.262984214818345
 R242: C1 + C245 = -0.8557682909032029
 R243: C2 + C246 = -0.0671573422598837
 R244: C1 + C247 = 0.6719180977666128
 R245: C2 + C248 = -0.5519851549443896
 R246: C1 + C249 = -1.076842501385613
 R247: C2 + C250 = -0.8235970244485786
 R248: C1 + C251 = -0.3161295793286238
 R249: C2 + C252 = -0.4044740681674992
 R250: C1 + C253 = -0.2923064608172835
 R251: C2 + C254 = 0.5261256616739417
 R252: C1 + C255 = -0.514107549704091
 R253: C2 + C256 = 0.4754159569194039
 R254: C1 + C257 = -0.5758865965669251
 R255: C2 + C258 = -1.620026056083583
 R256: C1 + C259 = 0.3231431762614676
 R257: C2 + C260 = -1.969512959418748
 R258: C1 + C261 = 0.4768264601422308
 R259: C2 + C262 = 1.133657276147201
 R260: C1 + C263 = -1.213555458950569
 R261: C2 + C264 = -0.5466918342281362
 R262: C1 + C265 = 2.28689318672091
 R263: C2 + C266 = 0.8180208004944489
 R264: C1 + C267 = -0.3476788973390578
 R265: C2 + C268 = 0.0310269075814897
 R266: C1 + C269 = -1.159128138564296
 R267: C2 + C270 = -0.733721364197957
 R268: C1 + C271 = -0.2510094986921652
 R269: C2 + C272 = 1.50647482969418
 R270: C1 + C273 = -1.753318628303916
 R271: C2 + C274 = -1.615510905609537
 R272: C1 + C275 = -0.5030401722900693
 R273: C2 + C276 = 0.8120979938316697
 R274: C1 + C277 = 2.250075723214897
 R275: C2 + C278 = -0.9395093512233621
 R276: C1 + C279 = 1.147552472273088
 R277: C2 + C280 = 0.7912589215713367
 R278: C1 + C281 = 2.198444026946693
 R279: C2 + C282 = -1.400925392818022
 R280: C1 + C283 = -1.478223102717711
 R281: C2 + C284 = -0.0475085426313988
 R282: C1 + C285 = 0.2100289662948097
 R283: C2 + C286 = -0.9417057570456793
 R284: C1 + C287 = -0.2704888208564382
 R285: C2 + C288 = 0.9511457652182851
 R286: C1 + C289 = -1.519766319305827
 R287: C2 + C290 = -0.3599434053221252
 R288: C1 + C291 = -0.1259734478824911
 R289: C2 + C292 = 0.3796472276016261
 R290: C1 + C293 = -0.2233292175783065
 R291: C2 + C294 = 0.2983382116330791
 R292: C1 + C295 = -2.107251277096865
 R293: C2 + C296 = -0.3876855296692767
 R294: C1 + C297 = -0.5236855376195891
 R295: C2 + C298 = 0.0614440477256415
 R296: C1 + C299 = 0.715589449546669
 R297: C2 + C300 = -2.177916159322537
 R298: C1 + C301 = -1.168794066598069
 R299: C2 + C302 = 0.7324677788123378
 R300: C1 + C303 = 1.631957794001194
 R301: C2 + C304 = 0.8191574387689751
 R302: C1 + C305 = 1.882216983777978
 R303: C2 + C306 = 0.4982377800142636
 R304: C1 + C307 = 1.43331921837211
 R305: C2 + C308 = -1.269777638188038
 R306: C1 + C309 = 0.5651115184248958
 R307: C2 + C310 = -0.2049233269701418
 R308: C1 + C311 = -1.876682511441494
 R309: C2 + C312 = -0.6595931185295961
 R310: C1 + C313 = 0.1138641535679225
 R311: C2 + C314 = -0.5019897290418515
 R312: C1 + C315 = -0.9392575579193027
 R313: C2 + C316 = 1.083195519873708
 R314: C1 + C317 = 1.833924845196189
 R315: C2 + C318 = 0.3634045779698371
 R316: C1 + C319 = -0.6171109338987233
 R317: C2 + C320 = -1.15037159099877
 R318: C1 + C321 = -1.725193026486483
 R319: C2 + C322 = -0.3905513709914215
 R320: C1 + C323 = -1.757908394921776
 R321: C2 + C324 = -1.565322985668844
 R322: C1 + C325 = 0.7434612065159972
 R323: C2 + C326 = -0.0543642660242127
 R324: C1 + C327 = 1.47164631378803
 R325: C2 + C328 = -1.10002699154361
 R326: C1 + C329 = -0.1836843502808362
 R327: C2 + C330 = -0.3692262397860086
 R328: C1 + C331 = -0.2954218921375051
 R329: C2 + C332 = 0.2367805168724524
 R330: C1 + C333 = -0.191235956894046
 R331: C2 + C334 = 0.3963456349910591
 R332: C1 + C335 = 0.875626040979141
 R333: C2 + C336 = 0.7745423431038077
 R334: C1 + C337 = -0.0734396255012073
 R335: C2 + C338 = -0.0397116351570219
 R336: C1 + C339 = 0.00499073117220133
 R337: C2 + C340 = -0.2853905142186938
 R338: C1 + C341 = 2.649087957198808
 R339: C2 + C342 = 0.663928394682745
 R340: C1 + C343 = 1.242378676049484
 R341: C2 + C344 = 0.4726772755042984
 R342: C1 + C345 = -1.320771874140307
 R343: C2 + C346 = -0.859631147363409
 R344: C1 + C347 = -0.8589586746451513
 R345: C2 + C348 = -0.2267993383596538
 R346: C1 + C349 = 0.5199382281972914
 R347: C2 + C350 = 1.371247548691704
 R348: C1 + C351 = -0.094034671824383
 R349: C2 + C352 = 0.5980848686173796
 R350: C1 + C353 = 0.9786011581684956
 R351: C2 + C354 = 1.478232707717005
 R352: C1 + C355 = 0.3986128484139785
 R353: C2 + C356 = -1.283682337649764
 R354: C1 + C357 = -0.2943771640195855
 R355: C2 + C358 = 1.005133542158915
 R356: C1 + C359 = -0.4396263042369762
 R357: C2 + C360 = 1.652021010164081
 R358: C1 + C361 = 1.445528887718743
 R359: C2 + C362 = -0.788333310415914
 R360: C1 + C363 = 2.38792323102194
 R361: C2 + C364 = -0.7560140679395518
 R362: C1 + C365 = 1.505633260419119
 R363: C2 + C366 = 1.714224938694119
 R364: C1 + C367 = -1.525262637436239
 R365: C2 + C368 = -0.3882162349073114
 R366: C1 + C369 = 0.2197109787466615
 R367: C2 + C370 = -0.0890749501482235
 R368: C1 + C371 = -1.052390457339858
 R369: C2 + C372 = 0.532346017496856
 R370: C1 + C373 = -0.8057139190888856
 R371: C2 + C374 = 0.5959400202038525
 R372: C1 + C375 = 1.388331988768169
 R373: C2 + C376 = 0.6985529044674732
 R374: C1 + C377 = -1.223629764428663
 R375: C2 + C378 = 0.2054347416438952
 R376: C1 + C379 = 2.300853834190055
 R377: C2 + C380 = -0.9363274533069554
 R378: C1 + C381 = 1.200502429754306
 R379: C2 + C382 = -0.7701161015041219
 R380: C1 + C383 = 0.0846760397178605
 R381: C2 + C384 = 0.9714560621069869
 R382: C1 + C385 = 4.5633464693375518e-04
 R383: C2 + C386 = -0.2622286128908094
 R384: C1 + C387 = 0.00724691347895738
 R385: C2 + C388 = 0.0686241988901544
 R386: C1 + C389 = 1.165518637818307
 R387: C2 + C390 = -0.3790287693517715
 R388: C1 + C391 = 0.4678904038015248
 R389: C2 + C392 = 0.2296125775893051
 R390: C1 + C393 = -0.6139530671295718
 R391: C2 + C394 = -0.7390485016296455
 R392: C1 + C395 = -1.216061748422522
 R393: C2 + C396 = 0.0514601923883067
 R394: C1 + C397 = 0.7417039827303541
 R395: C2 + C398 = -0.0973135306144958
 R396: C1 + C399 = -1.678238557168021
 R397: C2 + C400 = -1.442419052507106
 R398: C1 + C401 = -1.641213106984989
 R399: C2 + C402 = -0.7590106544333841
 qc0: [ - C0 ^2 + C3 ^2 + C4 ^2 ] <= 0
 qc1: [ - C0 ^2 + C5 ^2 + C6 ^2 ] <= 0
 qc2: [ - C0 ^2 + C7 ^2 + C8 ^2 ] <= 0
 qc3: [ - C0 ^2 + C9 ^2 + C10 ^2 ] <= 0
 qc4: [ - C0 ^2 + C11 ^2 + C12 ^2 ] <= 0
 qc5: [ - C0 ^2 + C13 ^2 + C14 ^2 ] <= 0
 qc6: [ - C0 ^2 + C15 ^2 + C16 ^2 ] <= 0
 qc7: [ - C0 ^2 + C17 ^2 + C18 ^2 ] <= 0
 qc8: [ - C0 ^2 + C19 ^2 + C20 ^2 ] <= 0
 qc9: [ - C0 ^2 + C21 ^2 + C22 ^2 ] <= 0
 qc10: [ - C0 ^2 + C23 ^2 + C24 ^2 ] <= 0
 qc11: [ - C0 ^2 + C25 ^2 + C26 ^2 ] <= 0
 qc12: [ - C0 ^2 + C27 ^2 + C28 ^2 ] <= 0
 qc13: [ - C0 ^2 + C29 ^2 + C30 ^2 ] <= 0
 qc14: [ - C0 ^2 + C31 ^2 + C32 ^2 ] <= 0
 qc15: [ - C0 ^2 + C33 ^2 + C34 ^2 ] <= 0
 qc16: [ - C0 ^2 + C35 ^2 + C36 ^2 ] <= 0
 qc17: [ - C0 ^2 + C37 ^2 + C38 ^2 ] <= 0
 qc18: [ - C0 ^2 + C39 ^2 + C40 ^2 ] <= 0
 qc19: [ - C0 ^2 + C41 ^2 + C42 ^2 ] <= 0
 qc20: [ - C0 ^2 + C43 ^2 + C44 ^2 ] <= 0
 qc21: [ - C0 ^2 + C45 ^2 + C46 ^2 ] <= 0
 qc22: [ - C0 ^2 + C47 ^2 + C48 ^2 ] <= 0
 qc23: [ - C0 ^2 + C49 ^2 + C50 ^2 ] <= 0
 qc24: [ - C0 ^2 + C51 ^2 + C52 ^2 ] <= 0
 qc25: [ - C0 ^2 + C53 ^2 + C54 ^2 ] <= 0
 qc26: [ - C0 ^2 + C55 ^2 + C56 ^2 ] <= 0
 qc27: [ - C0 ^2 + C57 ^2 + C58 ^2 ] <= 0
 qc28: [ - C0 ^2 + C59 ^2 + C60 ^2 ] <= 0
 qc29: [ - C0 ^2 + C61 ^2 + C62 ^2 ] <= 0
 qc30: [ - C0 ^2 + C63 ^2 + C64 ^2 ] <= 0
 qc31: [ - C0 ^2 + C65 ^2 + C66 ^2 ] <= 0
 qc32: [ - C0 ^2 + C67 ^2 + C68 ^2 ] <= 0
 qc33: [ - C0 ^2 + C69 ^2 + C70 ^2 ] <= 0
 qc34: [ - C0 ^2 + C71 ^2 + C72 ^2 ] <= 0
 qc35: [ - C0 ^2 + C73 ^2 + C74 ^2 ] <= 0
 qc36: [ - C0 ^2 + C75 ^2 + C76 ^2 ] <= 0
 qc37: [ - C0 ^2 + C77 ^2 + C78 ^2 ] <= 0
 qc38: [ - C0 ^2 + C79 ^2 + C80 ^2 ] <= 0
 qc39: [ - C0 ^2 + C81 ^2 + C82 ^2 ] <= 0
 qc40: [ - C0 ^2 + C83 ^2 + C84 ^2 ] <= 0
 qc41: [ - C0 ^2 + C85 ^2 + C86 ^2 ] <= 0
 qc42: [ - C0 ^2 + C87 ^2 + C88 ^2 ] <= 0
 qc43: [ - C0 ^2 + C89 ^2 + C90 ^2 ] <= 0
 qc44: [ - C0 ^2 + C91 ^2 + C92 ^2 ] <= 0
 qc45: [ - C0 ^2 + C93 ^2 + C94 ^2 ] <= 0
 qc46: [ - C0 ^2 + C95 ^2 + C96 ^2 ] <= 0
 qc47: [ - C0 ^2 + C97 ^2 + C98 ^2 ] <= 0
 qc48: [ - C0 ^2 + C99 ^2 + C100 ^2 ] <= 0
 qc49: [ - C0 ^2 + C101 ^2 + C102 ^2 ] <= 0
 qc50: [ - C0 ^2 + C103 ^2 + C104 ^2 ] <= 0
 qc51: [ - C0 ^2 + C105 ^2 + C106 ^2 ] <= 0
 qc52: [ - C0 ^2 + C107 ^2 + C108 ^2 ] <= 0
 qc53: [ - C0 ^2 + C109 ^2 + C110 ^2 ] <= 0
 qc54: [ - C0 ^2 + C111 ^2 + C112 ^2 ] <= 0
 qc55: [ - C0 ^2 + C113 ^2 + C114 ^2 ] <= 0
 qc56: [ - C0 ^2 + C115 ^2 + C116 ^2 ] <= 0
 qc57: [ - C0 ^2 + C117 ^2 + C118 ^2 ] <= 0
 qc58: [ - C0 ^2 + C119 ^2 + C120 ^2 ] <= 0
 qc59: [ - C0 ^2 + C121 ^2 + C122 ^2 ] <= 0
 qc60: [ - C0 ^2 + C123 ^2 + C124 ^2 ] <= 0
 qc61: [ - C0 ^2 + C125 ^2 + C126 ^2 ] <= 0
 qc62: [ - C0 ^2 + C127 ^2 + C128 ^2 ] <= 0
 qc63: [ - C0 ^2 + C129 ^2 + C130 ^2 ] <= 0
 qc64: [ - C0 ^2 + C131 ^2 + C132 ^2 ] <= 0
 qc65: [ - C0 ^2 + C133 ^2 + C134 ^2 ] <= 0
 qc66: [ - C0 ^2 + C135 ^2 + C136 ^2 ] <= 0
 qc67: [ - C0 ^2 + C137 ^2 + C138 ^2 ] <= 0
 qc68: [ - C0 ^2 + C139 ^2 + C140 ^2 ] <= 0
 qc69: [ - C0 ^2 + C141 ^2 + C142 ^2 ] <= 0
 qc70: [ - C0 ^2 + C143 ^2 + C144 ^2 ] <= 0
 qc71: [ - C0 ^2 + C145 ^2 + C146 ^2 ] <= 0
 qc72: [ - C0 ^2 + C147 ^2 + C148 ^2 ] <= 0
 qc73: [ - C0 ^2 + C149 ^2 + C150 ^2 ] <= 0
 qc74: [ - C0 ^2 + C151 ^2 + C152 ^2 ] <= 0
 qc75: [ - C0 ^2 + C153 ^2 + C154 ^2 ] <= 0
 qc76: [ - C0 ^2 + C155 ^2 + C156 ^2 ] <= 0
 qc77: [ - C0 ^2 + C157 ^2 + C158 ^2 ] <= 0
 qc78: [ - C0 ^2 + C159 ^2 + C160 ^2 ] <= 0
 qc79: [ - C0 ^2 + C161 ^2 + C162 ^2 ] <= 0
 qc80: [ - C0 ^2 + C163 ^2 + C164 ^2 ] <= 0
 qc81: [ - C0 ^2 + C165 ^2 + C166 ^2 ] <= 0
 qc82: [ - C0 ^2 + C167 ^2 + C168 ^2 ] <= 0
 qc83: [ - C0 ^2 + C169 ^2 + C170 ^2 ] <= 0
 qc84: [ - C0 ^2 + C171 ^2 + C172 ^2 ] <= 0
 qc85: [ - C0 ^2 + C173 ^2 + C174 ^2 ] <= 0
 qc86: [ - C0 ^2 + C175 ^2 + C176 ^2 ] <= 0
 qc87: [ - C0 ^2 + C177 ^2 + C178 ^2 ] <= 0
 qc88: [ - C0 ^2 + C179 ^2 + C180 ^2 ] <= 0
 qc89: [ - C0 ^2 + C181 ^2 + C182 ^2 ] <= 0
 qc90: [ - C0 ^2 + C183 ^2 + C184 ^2 ] <= 0
 qc91: [ - C0 ^2 + C185 ^2 + C186 ^2 ] <= 0
 qc92: [ - C0 ^2 + C187 ^2 + C188 ^2 ] <= 0
 qc93: [ - C0 ^2 + C189 ^2 + C190 ^2 ] <= 0
 qc94: [ - C0 ^2 + C191 ^2 + C192 ^2 ] <= 0
 qc95: [ - C0 ^2 + C193 ^2 + C194 ^2 ] <= 0
 qc96: [ - C0 ^2 + C195 ^2 + C196 ^2 ] <= 0
 qc97: [ - C0 ^2 + C197 ^2 + C198 ^2 ] <= 0
 qc98: [ - C0 ^2 + C199 ^2 + C200 ^2 ] <= 0
 qc99: [ - C0 ^2 + C201 ^2 + C202 ^2 ] <= 0
 qc100: [ - C0 ^2 + C203 ^2 + C204 ^2 ] <= 0
 qc101: [ - C0 ^2 + C205 ^2 + C206 ^2 ] <= 0
 qc102: [ - C0 ^2 + C207 ^2 + C208 ^2 ] <= 0
 qc103: [ - C0 ^2 + C209 ^2 + C210 ^2 ] <= 0
 qc104: [ - C0 ^2 + C211 ^2 + C212 ^2 ] <= 0
 qc105: [ - C0 ^2 + C213 ^2 + C214 ^2 ] <= 0
 qc106: [ - C0 ^2 + C215 ^2 + C216 ^2 ] <= 0
 qc107: [ - C0 ^2 + C217 ^2 + C218 ^2 ] <= 0
 qc108: [ - C0 ^2 + C219 ^2 + C220 ^2 ] <= 0
 qc109: [ - C0 ^2 + C221 ^2 + C222 ^2 ] <= 0
 qc110: [ - C0 ^2 + C223 ^2 + C224 ^2 ] <= 0
 qc111: [ - C0 ^2 + C225 ^2 + C226 ^2 ] <= 0
 qc112: [ - C0 ^2 + C227 ^2 + C228 ^2 ] <= 0
 qc113: [ - C0 ^2 + C229 ^2 + C230 ^2 ] <= 0
 qc114: [ - C0 ^2 + C231 ^2 + C232 ^2 ] <= 0
 qc115: [ - C0 ^2 + C233 ^2 + C234 ^2 ] <= 0
 qc116: [ - C0 ^2 + C235 ^2 + C236 ^2 ] <= 0
 qc117: [ - C0 ^2 + C237 ^2 + C238 ^2 ] <= 0
 qc118: [ - C0 ^2 + C239 ^2 + C240 ^2 ] <= 0
 qc119: [ - C0 ^2 + C241 ^2 + C242 ^2 ] <= 0
 qc120: [ - C0 ^2 + C243 ^2 + C244 ^2 ] <= 0
 qc121: [ - C0 ^2 + C245 ^2 + C246 ^2 ] <= 0
 qc122: [ - C0 ^2 + C247 ^2 + C248 ^2 ] <= 0
 qc123: [ - C0 ^2 + C249 ^2 + C250 ^2 ] <= 0
 qc124: [ - C0 ^2 + C251 ^2 + C252 ^2 ] <= 0
 qc125: [ - C0 ^2 + C253 ^2 + C254 ^2 ] <= 0
 qc126: [ - C0 ^2 + C255 ^2 + C256 ^2 ] <= 0
 qc127: [ - C0 ^2 + C257 ^2 + C258 ^2 ] <= 0
 qc128: [ - C0 ^2 + C259 ^2 + C260 ^2 ] <= 0
 qc129: [ - C0 ^2 + C261 ^2 + C262 ^2 ] <= 0
 qc130: [ - C0 ^2 + C263 ^2 + C264 ^2 ] <= 0
 qc131: [ - C0 ^2 + C265 ^2 + C266 ^2 ] <= 0
 qc132: [ - C0 ^2 + C267 ^2 + C268 ^2 ] <= 0
 qc133: [ - C0 ^2 + C269 ^2 + C270 ^2 ] <= 0
 qc134: [ - C0 ^2 + C271 ^2 + C272 ^2 ] <= 0
 qc135: [ - C0 ^2 + C273 ^2 + C274 ^2 ] <= 0
 qc136: [ - C0 ^2 + C275 ^2 + C276 ^2 ] <= 0
 qc137: [ - C0 ^2 + C277 ^2 + C278 ^2 ] <= 0
 qc138: [ - C0 ^2 + C279 ^2 + C280 ^2 ] <= 0
 qc139: [ - C0 ^2 + C281 ^2 + C282 ^2 ] <= 0
 qc140: [ - C0 ^2 + C283 ^2 + C284 ^2 ] <= 0
 qc141: [ - C0 ^2 + C285 ^2 + C286 ^2 ] <= 0
 qc142: [ - C0 ^2 + C287 ^2 + C288 ^2 ] <= 0
 qc143: [ - C0 ^2 + C289 ^2 + C290 ^2 ] <= 0
 qc144: [ - C0 ^2 + C291 ^2 + C292 ^2 ] <= 0
 qc145: [ - C0 ^2 + C293 ^2 + C294 ^2 ] <= 0
 qc146: [ - C0 ^2 + C295 ^2 + C296 ^2 ] <= 0
 qc147: [ - C0 ^2 + C297 ^2 + C298 ^2 ] <= 0
 qc148: [ - C0 ^2 + C299 ^2 + C300 ^2 ] <= 0
 qc149: [ - C0 ^2 + C301 ^2 + C302 ^2 ] <= 0
 qc150: [ - C0 ^2 + C303 ^2 + C304 ^2 ] <= 0
 qc151: [ - C0 ^2 + C305 ^2 + C306 ^2 ] <= 0
 qc152: [ - C0 ^2 + C307 ^2 + C308 ^2 ] <= 0
 qc153: [ - C0 ^2 + C309 ^2 + C310 ^2 ] <= 0
 qc154: [ - C0 ^2 + C311 ^2 + C312 ^2 ] <= 0
 qc155: [ - C0 ^2 + C313 ^2 + C314 ^2 ] <= 0
 qc156: [ - C0 ^2 + C315 ^2 + C316 ^2 ] <= 0
 qc157: [ - C0 ^2 + C317 ^2 + C318 ^2 ] <= 0
 qc158: [ - C0 ^2 + C319 ^2 + C320 ^2 ] <= 0
 qc159: [ - C0 ^2 + C321 ^2 + C322 ^2 ] <= 0
 qc160: [ - C0 ^2 + C323 ^2 + C324 ^2 ] <= 0
 qc161: [ - C0 ^2 + C325 ^2 + C326 ^2 ] <= 0
 qc162: [ - C0 ^2 + C327 ^2 + C328 ^2 ] <= 0
 qc163: [ - C0 ^2 + C329 ^2 + C330 ^2 ] <= 0
 qc164: [ - C0 ^2 + C331 ^2 + C332 ^2 ] <= 0
 qc165: [ - C0 ^2 + C333 ^2 + C334 ^2 ] <= 0
 qc166: [ - C0 ^2 + C335 ^2 + C336 ^2 ] <= 0
 qc167: [ - C0 ^2 + C337 ^2 + C338 ^2 ] <= 0
 qc168: [ - C0 ^2 + C339 ^2 + C340 ^2 ] <= 0
 qc169: [ - C0 ^2 + C341 ^2 + C342 ^2 ] <= 0
 qc170: [ - C0 ^2 + C343 ^2 + C344 ^2 ] <= 0
 qc171: [ - C0 ^2 + C345 ^2 + C346 ^2 ] <= 0
 qc172: [ - C0 ^2 + C347 ^2 + C348 ^2 ] <= 0
 qc173: [ - C0 ^2 + C349 ^2 + C350 ^2 ] <= 0
 qc174: [ - C0 ^2 + C351 ^2 + C352 ^2 ] <= 0
 qc175: [ - C0 ^2 + C353 ^2 + C354 ^2 ] <= 0
 qc176: [ - C0 ^2 + C355 ^2 + C356 ^2 ] <= 0
 qc177: [ - C0 ^2 + C357 ^2 + C358 ^2 ] <= 0
 qc178: [ - C0 ^2 + C359 ^2 + C360 ^2 ] <= 0
 qc179: [ - C0 ^2 + C361 ^2 + C362 ^2 ] <= 0
 qc180: [ - C0 ^2 + C363 ^2 + C364 ^2 ] <= 0
 qc181: [ - C0 ^2 + C365 ^2 + C366 ^2 ] <= 0
 qc182: [ - C0 ^2 + C367 ^2 + C368 ^2 ] <= 0
 qc183: [ - C0 ^2 + C369 ^2 + C370 ^2 ] <= 0
 qc184: [ - C0 ^2 + C371 ^2 + C372 ^2 ] <= 0
 qc185: [ - C0 ^2 + C373 ^2 + C374 ^2 ] <= 0
 qc186: [ - C0 ^2 + C375 ^2 + C376 ^2 ] <= 0
 qc187: [ - C0 ^2 + C377 ^2 + C378 ^2 ] <= 0
 qc188: [ - C0 ^2 + C379 ^2 + C380 ^2 ] <= 0
 qc189: [ - C0 ^2 + C381 ^2 + C382 ^2 ] <= 0
 qc190: [ - C0 ^2 + C383 ^2 + C384 ^2 ] <= 0
 qc191: [ - C0 ^2 + C385 ^2 + C386 ^2 ] <= 0
 qc192: [ - C0 ^2 + C387 ^2 + C388 ^2 ] <= 0
 qc193: [ - C0 ^2 + C389 ^2 + C390 ^2 ] <= 0
 qc194: [ - C0 ^2 + C391 ^2 + C392 ^2 ] <= 0
 qc195: [ - C0 ^2 + C393 ^2 + C394 ^2 ] <= 0
 qc196: [ - C0 ^2 + C395 ^2 + C396 ^2 ] <= 0
 qc197: [ - C0 ^2 + C397 ^2 + C398 ^2 ] <= 0
 qc198: [ - C0 ^2 + C399 ^2 + C400 ^2 ] <= 0
 qc199: [ - C0 ^2 + C401 ^2 + C402 ^2 ] <= 0
Bounds
 C0 <= 1e+08
 -1e+08 <= C1 <= 1e+08
 -1e+08 <= C2 <= 1e+08
 -1e+08 <= C3 <= 1e+08
 -1e+08 <= C4 <= 1e+08
 -1e+08 <= C5 <= 1e+08
 -1e+08 <= C6 <= 1e+08
 -1e+08 <= C7 <= 1e+08
 -1e+08 <= C8 <= 1e+08
 -1e+08 <= C9 <= 1e+08
 -1e+08 <= C10 <= 1e+08
 -1e+08 <= C11 <= 1e+08
 -1e+08 <= C12 <= 1e+08
 -1e+08 <= C13 <= 1e+08
 -1e+08 <= C14 <= 1e+08
 -1e+08 <= C15 <= 1e+08
 -1e+08 <= C16 <= 1e+08
 -1e+08 <= C17 <= 1e+08
 -1e+08 <= C18 <= 1e+08
 -1e+08 <= C19 <= 1e+08
 -1e+08 <= C20 <= 1e+08
 -1e+08 <= C21 <= 1e+08
 -1e+08 <= C22 <= 1e+08
 -1e+08 <= C23 <= 1e+08
 -1e+08 <= C24 <= 1e+08
 -1e+08 <= C25 <= 1e+08
 -1e+08 <= C26 <= 1e+08
 -1e+08 <= C27 <= 1e+08
 -1e+08 <= C28 <= 1e+08
 -1e+08 <= C29 <= 1e+08
 -1e+08 <= C30 <= 1e+08
 -1e+08 <= C31 <= 1e+08
 -1e+08 <= C32 <= 1e+08
 -1e+08 <= C33 <= 1e+08
 -1e+08 <= C34 <= 1e+08
 -1e+08 <= C35 <= 1e+08
 -1e+08 <= C36 <= 1e+08
 -1e+08 <= C37 <= 1e+08
 -1e+08 <= C38 <= 1e+08
 -1e+08 <= C39 <= 1e+08
 -1e+08 <= C40 <= 1e+08
 -1e+08 <= C41 <= 1e+08
 -1e+08 <= C42 <= 1e+08
 -1e+08 <= C43 <= 1e+08
 -1e+08 <= C44 <= 1e+08
 -1e+08 <= C45 <= 1e+08
 -1e+08 <= C46 <= 1e+08
 -1e+08 <= C47 <= 1e+08
 -1e+08 <= C48 <= 1e+08
 -1e+08 <= C49 <= 1e+08
 -1e+08 <= C50 <= 1e+08
 -1e+08 <= C51 <= 1e+08
 -1e+08 <= C52 <= 1e+08
 -1e+08 <= C53 <= 1e+08
 -1e+08 <= C54 <= 1e+08
 -1e+08 <= C55 <= 1e+08
 -1e+08 <= C56 <= 1e+08
 -1e+08 <= C57 <= 1e+08
 -1e+08 <= C58 <= 1e+08
 -1e+08 <= C59 <= 1e+08
 -1e+08 <= C60 <= 1e+08
 -1e+08 <= C61 <= 1e+08
 -1e+08 <= C62 <= 1e+08
 -1e+08 <= C63 <= 1e+08
 -1e+08 <= C64 <= 1e+08
 -1e+08 <= C65 <= 1e+08
 -1e+08 <= C66 <= 1e+08
 -1e+08 <= C67 <= 1e+08
 -1e+08 <= C68 <= 1e+08
 -1e+08 <= C69 <= 1e+08
 -1e+08 <= C70 <= 1e+08
 -1e+08 <= C71 <= 1e+08
 -1e+08 <= C72 <= 1e+08
 -1e+08 <= C73 <= 1e+08
 -1e+08 <= C74 <= 1e+08
 -1e+08 <= C75 <= 1e+08
 -1e+08 <= C76 <= 1e+08
 -1e+08 <= C77 <= 1e+08
 -1e+08 <= C78 <= 1e+08
 -1e+08 <= C79 <= 1e+08
 -1e+08 <= C80 <= 1e+08
 -1e+08 <= C81 <= 1e+08
 -1e+08 <= C82 <= 1e+08
 -1e+08 <= C83 <= 1e+08
 -1e+08 <= C84 <= 1e+08
 -1e+08 <= C85 <= 1e+08
 -1e+08 <= C86 <= 1e+08
 -1e+08 <= C87 <= 1e+08
 -1e+08 <= C88 <= 1e+08
 -1e+08 <= C89 <= 1e+08
 -1e+08 <= C90 <= 1e+08
 -1e+08 <= C91 <= 1e+08
 -1e+08 <= C92 <= 1e+08
 -1e+08 <= C93 <= 1e+08
 -1e+08 <= C94 <= 1e+08
 -1e+08 <= C95 <= 1e+08
 -1e+08 <= C96 <= 1e+08
 -1e+08 <= C97 <= 1e+08
 -1e+08 <= C98 <= 1e+08
 -1e+08 <= C99 <= 1e+08
 -1e+08 <= C100 <= 1e+08
 -1e+08 <= C101 <= 1e+08
 -1e+08 <= C102 <= 1e+08
 -1e+08 <= C103 <= 1e+08
 -1e+08 <= C104 <= 1e+08
 -1e+08 <= C105 <= 1e+08
 -1e+08 <= C106 <= 1e+08
 -1e+08 <= C107 <= 1e+08
 -1e+08 <= C108 <= 1e+08
 -1e+08 <= C109 <= 1e+08
 -1e+08 <= C110 <= 1e+08
 -1e+08 <= C111 <= 1e+08
 -1e+08 <= C112 <= 1e+08
 -1e+08 <= C113 <= 1e+08
 -1e+08 <= C114 <= 1e+08
 -1e+08 <= C115 <= 1e+08
 -1e+08 <= C116 <= 1e+08
 -1e+08 <= C117 <= 1e+08
 -1e+08 <= C118 <= 1e+08
 -1e+08 <= C119 <= 1e+08
 -1e+08 <= C120 <= 1e+08
 -1e+08 <= C121 <= 1e+08
 -1e+08 <= C122 <= 1e+08
 -1e+08 <= C123 <= 1e+08
 -1e+08 <= C124 <= 1e+08
 -1e+08 <= C125 <= 1e+08
 -1e+08 <= C126 <= 1e+08
 -1e+08 <= C127 <= 1e+08
 -1e+08 <= C128 <= 1e+08
 -1e+08 <= C129 <= 1e+08
 -1e+08 <= C130 <= 1e+08
 -1e+08 <= C131 <= 1e+08
 -1e+08 <= C132 <= 1e+08
 -1e+08 <= C133 <= 1e+08
 -1e+08 <= C134 <= 1e+08
 -1e+08 <= C135 <= 1e+08
 -1e+08 <= C136 <= 1e+08
 -1e+08 <= C137 <= 1e+08
 -1e+08 <= C138 <= 1e+08
 -1e+08 <= C139 <= 1e+08
 -1e+08 <= C140 <= 1e+08
 -1e+08 <= C141 <= 1e+08
 -1e+08 <= C142 <= 1e+08
 -1e+08 <= C143 <= 1e+08
 -1e+08 <= C144 <= 1e+08
 -1e+08 <= C145 <= 1e+08
 -1e+08 <= C146 <= 1e+08
 -1e+08 <= C147 <= 1e+08
 -1e+08 <= C148 <= 1e+08
 -1e+08 <= C149 <= 1e+08
 -1e+08 <= C150 <= 1e+08
 -1e+08 <= C151 <= 1e+08
 -1e+08 <= C152 <= 1e+08
 -1e+08 <= C153 <= 1e+08
 -1e+08 <= C154 <= 1e+08
 -1e+08 <= C155 <= 1e+08
 -1e+08 <= C156 <= 1e+08
 -1e+08 <= C157 <= 1e+08
 -1e+08 <= C158 <= 1e+08
 -1e+08 <= C159 <= 1e+08
 -1e+08 <= C160 <= 1e+08
 -1e+08 <= C161 <= 1e+08
 -1e+08 <= C162 <= 1e+08
 -1e+08 <= C163 <= 1e+08
 -1e+08 <= C164 <= 1e+08
 -1e+08 <= C165 <= 1e+08
 -1e+08 <= C166 <= 1e+08
 -1e+08 <= C167 <= 1e+08
 -1e+08 <= C168 <= 1e+08
 -1e+08 <= C169 <= 1e+08
 -1e+08 <= C170 <= 1e+08
 -1e+08 <= C171 <= 1e+08
 -1e+08 <= C172 <= 1e+08
 -1e+08 <= C173 <= 1e+08
 -1e+08 <= C174 <= 1e+08
 -1e+08 <= C175 <= 1e+08
 -1e+08 <= C176 <= 1e+08
 -1e+08 <= C177 <= 1e+08
 -1e+08 <= C178 <= 1e+08
 -1e+08 <= C179 <= 1e+08
 -1e+08 <= C180 <= 1e+08
 -1e+08 <= C181 <= 1e+08
 -1e+08 <= C182 <= 1e+08
 -1e+08 <= C183 <= 1e+08
 -1e+08 <= C184 <= 1e+08
 -1e+08 <= C185 <= 1e+08
 -1e+08 <= C186 <= 1e+08
 -1e+08 <= C187 <= 1e+08
 -1e+08 <= C188 <= 1e+08
 -1e+08 <= C189 <= 1e+08
 -1e+08 <= C190 <= 1e+08
 -1e+08 <= C191 <= 1e+08
 -1e+08 <= C192 <= 1e+08
 -1e+08 <= C193 <= 1e+08
 -1e+08 <= C194 <= 1e+08
 -1e+08 <= C195 <= 1e+08
 -1e+08 <= C196 <= 1e+08
 -1e+08 <= C197 <= 1e+08
 -1e+08 <= C198 <= 1e+08
 -1e+08 <= C199 <= 1e+08
 -1e+08 <= C200 <= 1e+08
 -1e+08 <= C201 <= 1e+08
 -1e+08 <= C202 <= 1e+08
 -1e+08 <= C203 <= 1e+08
 -1e+08 <= C204 <= 1e+08
 -1e+08 <= C205 <= 1e+08
 -1e+08 <= C206 <= 1e+08
 -1e+08 <= C207 <= 1e+08
 -1e+08 <= C208 <= 1e+08
 -1e+08 <= C209 <= 1e+08
 -1e+08 <= C210 <= 1e+08
 -1e+08 <= C211 <= 1e+08
 -1e+08 <= C212 <= 1e+08
 -1e+08 <= C213 <= 1e+08
 -1e+08 <= C214 <= 1e+08
 -1e+08 <= C215 <= 1e+08
 -1e+08 <= C216 <= 1e+08
 -1e+08 <= C217 <= 1e+08
 -1e+08 <= C218 <= 1e+08
 -1e+08 <= C219 <= 1e+08
 -1e+08 <= C220 <= 1e+08
 -1e+08 <= C221 <= 1e+08
 -1e+08 <= C222 <= 1e+08
 -1e+08 <= C223 <= 1e+08
 -1e+08 <= C224 <= 1e+08
 -1e+08 <= C225 <= 1e+08
 -1e+08 <= C226 <= 1e+08
 -1e+08 <= C227 <= 1e+08
 -1e+08 <= C228 <= 1e+08
 -1e+08 <= C229 <= 1e+08
 -1e+08 <= C230 <= 1e+08
 -1e+08 <= C231 <= 1e+08
 -1e+08 <= C232 <= 1e+08
 -1e+08 <= C233 <= 1e+08
 -1e+08 <= C234 <= 1e+08
 -1e+08 <= C235 <= 1e+08
 -1e+08 <= C236 <= 1e+08
 -1e+08 <= C237 <= 1e+08
 -1e+08 <= C238 <= 1e+08
 -1e+08 <= C239 <= 1e+08
 -1e+08 <= C240 <= 1e+08
 -1e+08 <= C241 <= 1e+08
 -1e+08 <= C242 <= 1e+08
 -1e+08 <= C243 <= 1e+08
 -1e+08 <= C244 <= 1e+08
 -1e+08 <= C245 <= 1e+08
 -1e+08 <= C246 <= 1e+08
 -1e+08 <= C247 <= 1e+08
 -1e+08 <= C248 <= 1e+08
 -1e+08 <= C249 <= 1e+08
 -1e+08 <= C250 <= 1e+08
 -1e+08 <= C251 <= 1e+08
 -1e+08 <= C252 <= 1e+08
 -1e+08 <= C253 <= 1e+08
 -1e+08 <= C254 <= 1e+08
 -1e+08 <= C255 <= 1e+08
 -1e+08 <= C256 <= 1e+08
 -1e+08 <= C257 <= 1e+08
 -1e+08 <= C258 <= 1e+08
 -1e+08 <= C259 <= 1e+08
 -1e+08 <= C260 <= 1e+08
 -1e+08 <= C261 <= 1e+08
 -1e+08 <= C262 <= 1e+08
 -1e+08 <= C263 <= 1e+08
 -1e+08 <= C264 <= 1e+08
 -1e+08 <= C265 <= 1e+08
 -1e+08 <= C266 <= 1e+08
 -1e+08 <= C267 <= 1e+08
 -1e+08 <= C268 <= 1e+08
 -1e+08 <= C269 <= 1e+08
 -1e+08 <= C270 <= 1e+08
 -1e+08 <= C271 <= 1e+08
 -1e+08 <= C272 <= 1e+08
 -1e+08 <= C273 <= 1e+08
 -1e+08 <= C274 <= 1e+08
 -1e+08 <= C275 <= 1e+08
 -1e+08 <= C276 <= 1e+08
 -1e+08 <= C277 <= 1e+08
 -1e+08 <= C278 <= 1e+08
 -1e+08 <= C279 <= 1e+08
 -1e+08 <= C280 <= 1e+08
 -1e+08 <= C281 <= 1e+08
 -1e+08 <= C282 <= 1e+08
 -1e+08 <= C283 <= 1e+08
 -1e+08 <= C284 <= 1e+08
 -1e+08 <= C285 <= 1e+08
 -1e+08 <= C286 <= 1e+08
 -1e+08 <= C287 <= 1e+08
 -1e+08 <= C288 <= 1e+08
 -1e+08 <= C289 <= 1e+08
 -1e+08 <= C290 <= 1e+08
 -1e+08 <= C291 <= 1e+08
 -1e+08 <= C292 <= 1e+08
 -1e+08 <= C293 <= 1e+08
 -1e+08 <= C294 <= 1e+08
 -1e+08 <= C295 <= 1e+08
 -1e+08 <= C296 <= 1e+08
 -1e+08 <= C297 <= 1e+08
 -1e+08 <= C298 <= 1e+08
 -1e+08 <= C299 <= 1e+08
 -1e+08 <= C300 <= 1e+08
 -1e+08 <= C301 <= 1e+08
 -1e+08 <= C302 <= 1e+08
 -1e+08 <= C303 <= 1e+08
 -1e+08 <= C304 <= 1e+08
 -1e+08 <= C305 <= 1e+08
 -1e+08 <= C306 <= 1e+08
 -1e+08 <= C307 <= 1e+08
 -1e+08 <= C308 <= 1e+08
 -1e+08 <= C309 <= 1e+08
 -1e+08 <= C310 <= 1e+08
 -1e+08 <= C311 <= 1e+08
 -1e+08 <= C312 <= 1e+08
 -1e+08 <= C313 <= 1e+08
 -1e+08 <= C314 <= 1e+08
 -1e+08 <= C315 <= 1e+08
 -1e+08 <= C316 <= 1e+08
 -1e+08 <= C317 <= 1e+08
 -1e+08 <= C318 <= 1e+08
 -1e+08 <= C319 <= 1e+08
 -1e+08 <= C320 <= 1e+08
 -1e+08 <= C321 <= 1e+08
 -1e+08 <= C322 <= 1e+08
 -1e+08 <= C323 <= 1e+08
 -1e+08 <= C324 <= 1e+08
 -1e+08 <= C325 <= 1e+08
 -1e+08 <= C326 <= 1e+08
 -1e+08 <= C327 <= 1e+08
 -1e+08 <= C328 <= 1e+08
 -1e+08 <= C329 <= 1e+08
 -1e+08 <= C330 <= 1e+08
 -1e+08 <= C331 <= 1e+08
 -1e+08 <= C332 <= 1e+08
 -1e+08 <= C333 <= 1e+08
 -1e+08 <= C334 <= 1e+08
 -1e+08 <= C335 <= 1e+08
 -1e+08 <= C336 <= 1e+08
 -1e+08 <= C337 <= 1e+08
 -1e+08 <= C338 <= 1e+08
 -1e+08 <= C339 <= 1e+08
 -1e+08 <= C340 <= 1e+08
 -1e+08 <= C341 <= 1e+08
 -1e+08 <= C342 <= 1e+08
 -1e+08 <= C343 <= 1e+08
 -1e+08 <= C344 <= 1e+08
 -1e+08 <= C345 <= 1e+08
 -1e+08 <= C346 <= 1e+08
 -1e+08 <= C347 <= 1e+08
 -1e+08 <= C348 <= 1e+08
 -1e+08 <= C349 <= 1e+08
 -1e+08 <= C350 <= 1e+08
 -1e+08 <= C351 <= 1e+08
 -1e+08 <= C352 <= 1e+08
 -1e+08 <= C353 <= 1e+08
 -1e+08 <= C354 <= 1e+08
 -1e+08 <= C355 <= 1e+08
 -1e+08 <= C356 <= 1e+08
 -1e+08 <= C357 <= 1e+08
 -1e+08 <= C358 <= 1e+08
 -1e+08 <= C359 <= 1e+08
 -1e+08 <= C360 <= 1e+08
 -1e+08 <= C361 <= 1e+08
 -1e+08 <= C362 <= 1e+08
 -1e+08 <= C363 <= 1e+08
 -1e+08 <= C364 <= 1e+08
 -1e+08 <= C365 <= 1e+08
 -1e+08 <= C366 <= 1e+08
 -1e+08 <= C367 <= 1e+08
 -1e+08 <= C368 <= 1e+08
 -1e+08 <= C369 <= 1e+08
 -1e+08 <= C370 <= 1e+08
 -1e+08 <= C371 <= 1e+08
 -1e+08 <= C372 <= 1e+08
 -1e+08 <= C373 <= 1e+08
 -1e+08 <= C374 <= 1e+08
 -1e+08 <= C375 <= 1e+08
 -1e+08 <= C376 <= 1e+08
 -1e+08 <= C377 <= 1e+08
 -1e+08 <= C378 <= 1e+08
 -1e+08 <= C379 <= 1e+08
 -1e+08 <= C380 <= 1e+08
 -1e+08 <= C381 <= 1e+08
 -1e+08 <= C382 <= 1e+08
 -1e+08 <= C383 <= 1e+08
 -1e+08 <= C384 <= 1e+08
 -1e+08 <= C385 <= 1e+08
 -1e+08 <= C386 <= 1e+08
 -1e+08 <= C387 <= 1e+08
 -1e+08 <= C388 <= 1e+08
 -1e+08 <= C389 <= 1e+08
 -1e+08 <= C390 <= 1e+08
 -1e+08 <= C391 <= 1e+08
 -1e+08 <= C392 <= 1e+08
 -1e+08 <= C393 <= 1e+08
 -1e+08 <= C394 <= 1e+08
 -1e+08 <= C395 <= 1e+08
 -1e+08 <= C396 <= 1e+08
 -1e+08 <= C397 <= 1e+08
 -1e+08 <= C398 <= 1e+08
 -1e+08 <= C399 <= 1e+08
 -1e+08 <= C400 <= 1e+08
 -1e+08 <= C401 <= 1e+08
 -1e+08 <= C402 <= 1e+08
End
